55955452001979631625013,6,1,2,015,11,1,2,04,11,1,2,012,6,1,2,05,5,1,2,015,8,1,2,015,9,1,2,04,12,1,2,06,2,1,2,02,2,1,2,011,15,1,2,07,13,1,2,013,4,1,2,01,14,1,2,02,5,1,2,012,9,1,2,01,2,1,2,04,12,1,2,01,12,1,2,015,15,1,2,011,13,1,2,05,13,1,2,05,5,1,2,07,6,1,2,01,7,1,2,05,14,1,2,03,2,1,2,010,6,1,2,012,9,1,2,01,3,1,2,011,14,1,2,013,1,1,2,014,3,1,2,04,13,1,2,09,15,1,2,012,8,1,2,014,3,1,2,012,1,1,2,03,7,1,2,01,13,1,2,015,3,1,2,013,12,1,2,01,8,1,2,09,13,1,2,015,6,1,2,07,8,1,2,03,5,1,2,07,11,1,2,08,10,1,2,013,6,1,2,0